n_res = 4;
rc = [ 31, 24, 30, 29 ];
n_tasks = 30;
d = [ 10, 10, 3, 2, 10, 9, 6, 6, 2, 1, 5, 3, 1, 3, 5, 2, 10, 1, 8, 1, 8, 6, 2, 2, 8, 6, 4, 3, 8, 1 ];
rr = [| 5, 8, 8, 1, 7, 8, 4, 10, 5, 2, 5, 4, 9, 5, 9, 2, 10, 5, 10, 1, 2, 6, 2, 9, 3, 7, 7, 9, 4, 7
      | 3, 2, 2, 1, 10, 1, 1, 5, 9, 4, 10, 7, 8, 2, 2, 1, 1, 2, 3, 7, 5, 3, 3, 5, 10, 1, 9, 8, 3, 4
      | 8, 3, 1, 4, 3, 1, 3, 5, 5, 4, 5, 9, 10, 9, 9, 8, 2, 2, 6, 6, 5, 10, 9, 4, 4, 3, 5, 1, 10, 5
      | 10, 8, 10, 4, 6, 4, 9, 3, 1, 3, 7, 8, 8, 4, 5, 4, 8, 9, 1, 10, 1, 1, 9, 8, 6, 3, 1, 9, 8, 1 |];
suc = [ { 2 }, 
        { 3 }, 
        { 4 }, 
        { 5 }, 
        { 6 }, 
        { 7 }, 
        { 8 }, 
        { 9 }, 
        { 10 }, 
        { 11 }, 
        { 12 }, 
        { 13 }, 
        { 14 }, 
        { 15 }, 
        { 16 }, 
        { 17 }, 
        { 18 }, 
        { 19 }, 
        { 20 }, 
        { 21 }, 
        { 22 }, 
        { 23 }, 
        { 24 }, 
        { 25 }, 
        { 26 }, 
        { 27 }, 
        { 28 }, 
        { 29 }, 
        { 30 }, 
        {  }]; 
